#MCNFP Problem - data file for problem instance
#Charles Nicholson, ISE 5113, 2015

#use with MCNFP.txt model
#note: default arc costs and lower bounds are 0
#      default arc upper bounds are infinity
#      default node requirements are 0


set NODES :=  	1 2 3 4 ; 

set ARCS := 	(1, 2) (1,3) (2,4) (3,4)  ;

param b :=
	1  5 
        2 -2
        3  0
        4 -3;

param:        c  l u :=
	[1,2] 3  2 5
        [1,3] 2  . 2 
        [2,4] 4  1 3 
        [3,4] 4  . .
;

  